\ LP format - for model browsing. Use MPS format to capture full model detail.
Minimize
  p0 + p1 + p2 + p3 + p4 + p5 + p6 + p7
Subject To
 R0: x0,1_1 + x0,2_1 + x0,3_1 + x0,4_1 + x0,5_1 + x0,6_1 + x0,7_1 + x1,2_1
   + x1,3_1 + x1,4_1 + x1,5_1 + x1,6_1 + x1,7_1 + x2,3_1 + x2,4_1 + x2,5_1
   + x2,6_1 + x2,7_1 + x3,4_1 + x3,5_1 + x3,6_1 + x3,7_1 + x4,5_1 + x4,6_1
   + x4,7_1 + x5,6_1 + x5,7_1 + x6,7_1 = 1
 R1: x0,1_10 + x0,2_10 + x0,3_10 + x0,4_10 + x0,5_10 + x0,6_10 + x0,7_10
   + x1,2_10 + x1,3_10 + x1,4_10 + x1,5_10 + x1,6_10 + x1,7_10 + x2,3_10
   + x2,4_10 + x2,5_10 + x2,6_10 + x2,7_10 + x3,4_10 + x3,5_10 + x3,6_10
   + x3,7_10 + x4,5_10 + x4,6_10 + x4,7_10 + x5,6_10 + x5,7_10 + x6,7_10
   = 1
 R2: x0,1_13 + x0,2_13 + x0,3_13 + x0,4_13 + x0,5_13 + x0,6_13 + x0,7_13
   + x1,2_13 + x1,3_13 + x1,4_13 + x1,5_13 + x1,6_13 + x1,7_13 + x2,3_13
   + x2,4_13 + x2,5_13 + x2,6_13 + x2,7_13 + x3,4_13 + x3,5_13 + x3,6_13
   + x3,7_13 + x4,5_13 + x4,6_13 + x4,7_13 + x5,6_13 + x5,7_13 + x6,7_13
   = 1
 R3: x0,1_43 + x0,2_43 + x0,3_43 + x0,4_43 + x0,5_43 + x0,6_43 + x0,7_43
   + x1,2_43 + x1,3_43 + x1,4_43 + x1,5_43 + x1,6_43 + x1,7_43 + x2,3_43
   + x2,4_43 + x2,5_43 + x2,6_43 + x2,7_43 + x3,4_43 + x3,5_43 + x3,6_43
   + x3,7_43 + x4,5_43 + x4,6_43 + x4,7_43 + x5,6_43 + x5,7_43 + x6,7_43
   = 1
 R4: x0,1_61 + x0,2_61 + x0,3_61 + x0,4_61 + x0,5_61 + x0,6_61 + x0,7_61
   + x1,2_61 + x1,3_61 + x1,4_61 + x1,5_61 + x1,6_61 + x1,7_61 + x2,3_61
   + x2,4_61 + x2,5_61 + x2,6_61 + x2,7_61 + x3,4_61 + x3,5_61 + x3,6_61
   + x3,7_61 + x4,5_61 + x4,6_61 + x4,7_61 + x5,6_61 + x5,7_61 + x6,7_61
   = 1
 R5: x0,1_66 + x0,2_66 + x0,3_66 + x0,4_66 + x0,5_66 + x0,6_66 + x0,7_66
   + x1,2_66 + x1,3_66 + x1,4_66 + x1,5_66 + x1,6_66 + x1,7_66 + x2,3_66
   + x2,4_66 + x2,5_66 + x2,6_66 + x2,7_66 + x3,4_66 + x3,5_66 + x3,6_66
   + x3,7_66 + x4,5_66 + x4,6_66 + x4,7_66 + x5,6_66 + x5,7_66 + x6,7_66
   = 1
 R6: x0,1_76 + x0,2_76 + x0,3_76 + x0,4_76 + x0,5_76 + x0,6_76 + x0,7_76
   + x1,2_76 + x1,3_76 + x1,4_76 + x1,5_76 + x1,6_76 + x1,7_76 + x2,3_76
   + x2,4_76 + x2,5_76 + x2,6_76 + x2,7_76 + x3,4_76 + x3,5_76 + x3,6_76
   + x3,7_76 + x4,5_76 + x4,6_76 + x4,7_76 + x5,6_76 + x5,7_76 + x6,7_76
   = 1
 R7: x0,1_97 + x0,2_97 + x0,3_97 + x0,4_97 + x0,5_97 + x0,6_97 + x0,7_97
   + x1,2_97 + x1,3_97 + x1,4_97 + x1,5_97 + x1,6_97 + x1,7_97 + x2,3_97
   + x2,4_97 + x2,5_97 + x2,6_97 + x2,7_97 + x3,4_97 + x3,5_97 + x3,6_97
   + x3,7_97 + x4,5_97 + x4,6_97 + x4,7_97 + x5,6_97 + x5,7_97 + x6,7_97
   = 1
 R8: x0,1_98 + x0,2_98 + x0,3_98 + x0,4_98 + x0,5_98 + x0,6_98 + x0,7_98
   + x1,2_98 + x1,3_98 + x1,4_98 + x1,5_98 + x1,6_98 + x1,7_98 + x2,3_98
   + x2,4_98 + x2,5_98 + x2,6_98 + x2,7_98 + x3,4_98 + x3,5_98 + x3,6_98
   + x3,7_98 + x4,5_98 + x4,6_98 + x4,7_98 + x5,6_98 + x5,7_98 + x6,7_98
   = 1
 R9: x0,1_99 + x0,2_99 + x0,3_99 + x0,4_99 + x0,5_99 + x0,6_99 + x0,7_99
   + x1,2_99 + x1,3_99 + x1,4_99 + x1,5_99 + x1,6_99 + x1,7_99 + x2,3_99
   + x2,4_99 + x2,5_99 + x2,6_99 + x2,7_99 + x3,4_99 + x3,5_99 + x3,6_99
   + x3,7_99 + x4,5_99 + x4,6_99 + x4,7_99 + x5,6_99 + x5,7_99 + x6,7_99
   = 1
 R10: x0,1_1 + x0,1_10 + x0,1_13 + x0,1_43 + x0,1_61 + x0,1_66 + x0,1_76
   + x0,1_97 + x0,1_98 + x0,1_99 <= 1
 R11: x0,2_1 + x0,2_10 + x0,2_13 + x0,2_43 + x0,2_61 + x0,2_66 + x0,2_76
   + x0,2_97 + x0,2_98 + x0,2_99 <= 1
 R12: x0,3_1 + x0,3_10 + x0,3_13 + x0,3_43 + x0,3_61 + x0,3_66 + x0,3_76
   + x0,3_97 + x0,3_98 + x0,3_99 <= 1
 R13: x0,4_1 + x0,4_10 + x0,4_13 + x0,4_43 + x0,4_61 + x0,4_66 + x0,4_76
   + x0,4_97 + x0,4_98 + x0,4_99 <= 1
 R14: x0,5_1 + x0,5_10 + x0,5_13 + x0,5_43 + x0,5_61 + x0,5_66 + x0,5_76
   + x0,5_97 + x0,5_98 + x0,5_99 <= 1
 R15: x0,6_1 + x0,6_10 + x0,6_13 + x0,6_43 + x0,6_61 + x0,6_66 + x0,6_76
   + x0,6_97 + x0,6_98 + x0,6_99 <= 1
 R16: x0,7_1 + x0,7_10 + x0,7_13 + x0,7_43 + x0,7_61 + x0,7_66 + x0,7_76
   + x0,7_97 + x0,7_98 + x0,7_99 <= 1
 R17: x1,2_1 + x1,2_10 + x1,2_13 + x1,2_43 + x1,2_61 + x1,2_66 + x1,2_76
   + x1,2_97 + x1,2_98 + x1,2_99 <= 1
 R18: x1,3_1 + x1,3_10 + x1,3_13 + x1,3_43 + x1,3_61 + x1,3_66 + x1,3_76
   + x1,3_97 + x1,3_98 + x1,3_99 <= 1
 R19: x1,4_1 + x1,4_10 + x1,4_13 + x1,4_43 + x1,4_61 + x1,4_66 + x1,4_76
   + x1,4_97 + x1,4_98 + x1,4_99 <= 1
 R20: x1,5_1 + x1,5_10 + x1,5_13 + x1,5_43 + x1,5_61 + x1,5_66 + x1,5_76
   + x1,5_97 + x1,5_98 + x1,5_99 <= 1
 R21: x1,6_1 + x1,6_10 + x1,6_13 + x1,6_43 + x1,6_61 + x1,6_66 + x1,6_76
   + x1,6_97 + x1,6_98 + x1,6_99 <= 1
 R22: x1,7_1 + x1,7_10 + x1,7_13 + x1,7_43 + x1,7_61 + x1,7_66 + x1,7_76
   + x1,7_97 + x1,7_98 + x1,7_99 <= 1
 R23: x2,3_1 + x2,3_10 + x2,3_13 + x2,3_43 + x2,3_61 + x2,3_66 + x2,3_76
   + x2,3_97 + x2,3_98 + x2,3_99 <= 1
 R24: x2,4_1 + x2,4_10 + x2,4_13 + x2,4_43 + x2,4_61 + x2,4_66 + x2,4_76
   + x2,4_97 + x2,4_98 + x2,4_99 <= 1
 R25: x2,5_1 + x2,5_10 + x2,5_13 + x2,5_43 + x2,5_61 + x2,5_66 + x2,5_76
   + x2,5_97 + x2,5_98 + x2,5_99 <= 1
 R26: x2,6_1 + x2,6_10 + x2,6_13 + x2,6_43 + x2,6_61 + x2,6_66 + x2,6_76
   + x2,6_97 + x2,6_98 + x2,6_99 <= 1
 R27: x2,7_1 + x2,7_10 + x2,7_13 + x2,7_43 + x2,7_61 + x2,7_66 + x2,7_76
   + x2,7_97 + x2,7_98 + x2,7_99 <= 1
 R28: x3,4_1 + x3,4_10 + x3,4_13 + x3,4_43 + x3,4_61 + x3,4_66 + x3,4_76
   + x3,4_97 + x3,4_98 + x3,4_99 <= 1
 R29: x3,5_1 + x3,5_10 + x3,5_13 + x3,5_43 + x3,5_61 + x3,5_66 + x3,5_76
   + x3,5_97 + x3,5_98 + x3,5_99 <= 1
 R30: x3,6_1 + x3,6_10 + x3,6_13 + x3,6_43 + x3,6_61 + x3,6_66 + x3,6_76
   + x3,6_97 + x3,6_98 + x3,6_99 <= 1
 R31: x3,7_1 + x3,7_10 + x3,7_13 + x3,7_43 + x3,7_61 + x3,7_66 + x3,7_76
   + x3,7_97 + x3,7_98 + x3,7_99 <= 1
 R32: x4,5_1 + x4,5_10 + x4,5_13 + x4,5_43 + x4,5_61 + x4,5_66 + x4,5_76
   + x4,5_97 + x4,5_98 + x4,5_99 <= 1
 R33: x4,6_1 + x4,6_10 + x4,6_13 + x4,6_43 + x4,6_61 + x4,6_66 + x4,6_76
   + x4,6_97 + x4,6_98 + x4,6_99 <= 1
 R34: x4,7_1 + x4,7_10 + x4,7_13 + x4,7_43 + x4,7_61 + x4,7_66 + x4,7_76
   + x4,7_97 + x4,7_98 + x4,7_99 <= 1
 R35: x5,6_1 + x5,6_10 + x5,6_13 + x5,6_43 + x5,6_61 + x5,6_66 + x5,6_76
   + x5,6_97 + x5,6_98 + x5,6_99 <= 1
 R36: x5,7_1 + x5,7_10 + x5,7_13 + x5,7_43 + x5,7_61 + x5,7_66 + x5,7_76
   + x5,7_97 + x5,7_98 + x5,7_99 <= 1
 R37: x6,7_1 + x6,7_10 + x6,7_13 + x6,7_43 + x6,7_61 + x6,7_66 + x6,7_76
   + x6,7_97 + x6,7_98 + x6,7_99 <= 1
 R38: p0 - p1 <= -1
 R39: - x0,1_1 - p0 + p1 >= 0
 R40: 564 x0,1_1 - p0 + p1 <= 565
 R41: - 10 x0,1_10 - p0 + p1 >= 0
 R42: 564 x0,1_10 - p0 + p1 <= 574
 R43: - 13 x0,1_13 - p0 + p1 >= 0
 R44: 564 x0,1_13 - p0 + p1 <= 577
 R45: - 43 x0,1_43 - p0 + p1 >= 0
 R46: 564 x0,1_43 - p0 + p1 <= 607
 R47: - 61 x0,1_61 - p0 + p1 >= 0
 R48: 564 x0,1_61 - p0 + p1 <= 625
 R49: - 66 x0,1_66 - p0 + p1 >= 0
 R50: 564 x0,1_66 - p0 + p1 <= 630
 R51: - 76 x0,1_76 - p0 + p1 >= 0
 R52: 564 x0,1_76 - p0 + p1 <= 640
 R53: - 97 x0,1_97 - p0 + p1 >= 0
 R54: 564 x0,1_97 - p0 + p1 <= 661
 R55: - 98 x0,1_98 - p0 + p1 >= 0
 R56: 564 x0,1_98 - p0 + p1 <= 662
 R57: - 99 x0,1_99 - p0 + p1 >= 0
 R58: 564 x0,1_99 - p0 + p1 <= 663
 R59: p0 - p2 <= -1
 R60: - x0,2_1 - p0 + p2 >= 0
 R61: 564 x0,2_1 - p0 + p2 <= 565
 R62: - 10 x0,2_10 - p0 + p2 >= 0
 R63: 564 x0,2_10 - p0 + p2 <= 574
 R64: - 13 x0,2_13 - p0 + p2 >= 0
 R65: 564 x0,2_13 - p0 + p2 <= 577
 R66: - 43 x0,2_43 - p0 + p2 >= 0
 R67: 564 x0,2_43 - p0 + p2 <= 607
 R68: - 61 x0,2_61 - p0 + p2 >= 0
 R69: 564 x0,2_61 - p0 + p2 <= 625
 R70: - 66 x0,2_66 - p0 + p2 >= 0
 R71: 564 x0,2_66 - p0 + p2 <= 630
 R72: - 76 x0,2_76 - p0 + p2 >= 0
 R73: 564 x0,2_76 - p0 + p2 <= 640
 R74: - 97 x0,2_97 - p0 + p2 >= 0
 R75: 564 x0,2_97 - p0 + p2 <= 661
 R76: - 98 x0,2_98 - p0 + p2 >= 0
 R77: 564 x0,2_98 - p0 + p2 <= 662
 R78: - 99 x0,2_99 - p0 + p2 >= 0
 R79: 564 x0,2_99 - p0 + p2 <= 663
 R80: p0 - p3 <= -1
 R81: - x0,3_1 - p0 + p3 >= 0
 R82: 564 x0,3_1 - p0 + p3 <= 565
 R83: - 10 x0,3_10 - p0 + p3 >= 0
 R84: 564 x0,3_10 - p0 + p3 <= 574
 R85: - 13 x0,3_13 - p0 + p3 >= 0
 R86: 564 x0,3_13 - p0 + p3 <= 577
 R87: - 43 x0,3_43 - p0 + p3 >= 0
 R88: 564 x0,3_43 - p0 + p3 <= 607
 R89: - 61 x0,3_61 - p0 + p3 >= 0
 R90: 564 x0,3_61 - p0 + p3 <= 625
 R91: - 66 x0,3_66 - p0 + p3 >= 0
 R92: 564 x0,3_66 - p0 + p3 <= 630
 R93: - 76 x0,3_76 - p0 + p3 >= 0
 R94: 564 x0,3_76 - p0 + p3 <= 640
 R95: - 97 x0,3_97 - p0 + p3 >= 0
 R96: 564 x0,3_97 - p0 + p3 <= 661
 R97: - 98 x0,3_98 - p0 + p3 >= 0
 R98: 564 x0,3_98 - p0 + p3 <= 662
 R99: - 99 x0,3_99 - p0 + p3 >= 0
 R100: 564 x0,3_99 - p0 + p3 <= 663
 R101: p0 - p4 <= -1
 R102: - x0,4_1 - p0 + p4 >= 0
 R103: 564 x0,4_1 - p0 + p4 <= 565
 R104: - 10 x0,4_10 - p0 + p4 >= 0
 R105: 564 x0,4_10 - p0 + p4 <= 574
 R106: - 13 x0,4_13 - p0 + p4 >= 0
 R107: 564 x0,4_13 - p0 + p4 <= 577
 R108: - 43 x0,4_43 - p0 + p4 >= 0
 R109: 564 x0,4_43 - p0 + p4 <= 607
 R110: - 61 x0,4_61 - p0 + p4 >= 0
 R111: 564 x0,4_61 - p0 + p4 <= 625
 R112: - 66 x0,4_66 - p0 + p4 >= 0
 R113: 564 x0,4_66 - p0 + p4 <= 630
 R114: - 76 x0,4_76 - p0 + p4 >= 0
 R115: 564 x0,4_76 - p0 + p4 <= 640
 R116: - 97 x0,4_97 - p0 + p4 >= 0
 R117: 564 x0,4_97 - p0 + p4 <= 661
 R118: - 98 x0,4_98 - p0 + p4 >= 0
 R119: 564 x0,4_98 - p0 + p4 <= 662
 R120: - 99 x0,4_99 - p0 + p4 >= 0
 R121: 564 x0,4_99 - p0 + p4 <= 663
 R122: p0 - p5 <= -1
 R123: - x0,5_1 - p0 + p5 >= 0
 R124: 564 x0,5_1 - p0 + p5 <= 565
 R125: - 10 x0,5_10 - p0 + p5 >= 0
 R126: 564 x0,5_10 - p0 + p5 <= 574
 R127: - 13 x0,5_13 - p0 + p5 >= 0
 R128: 564 x0,5_13 - p0 + p5 <= 577
 R129: - 43 x0,5_43 - p0 + p5 >= 0
 R130: 564 x0,5_43 - p0 + p5 <= 607
 R131: - 61 x0,5_61 - p0 + p5 >= 0
 R132: 564 x0,5_61 - p0 + p5 <= 625
 R133: - 66 x0,5_66 - p0 + p5 >= 0
 R134: 564 x0,5_66 - p0 + p5 <= 630
 R135: - 76 x0,5_76 - p0 + p5 >= 0
 R136: 564 x0,5_76 - p0 + p5 <= 640
 R137: - 97 x0,5_97 - p0 + p5 >= 0
 R138: 564 x0,5_97 - p0 + p5 <= 661
 R139: - 98 x0,5_98 - p0 + p5 >= 0
 R140: 564 x0,5_98 - p0 + p5 <= 662
 R141: - 99 x0,5_99 - p0 + p5 >= 0
 R142: 564 x0,5_99 - p0 + p5 <= 663
 R143: p0 - p6 <= -1
 R144: - x0,6_1 - p0 + p6 >= 0
 R145: 564 x0,6_1 - p0 + p6 <= 565
 R146: - 10 x0,6_10 - p0 + p6 >= 0
 R147: 564 x0,6_10 - p0 + p6 <= 574
 R148: - 13 x0,6_13 - p0 + p6 >= 0
 R149: 564 x0,6_13 - p0 + p6 <= 577
 R150: - 43 x0,6_43 - p0 + p6 >= 0
 R151: 564 x0,6_43 - p0 + p6 <= 607
 R152: - 61 x0,6_61 - p0 + p6 >= 0
 R153: 564 x0,6_61 - p0 + p6 <= 625
 R154: - 66 x0,6_66 - p0 + p6 >= 0
 R155: 564 x0,6_66 - p0 + p6 <= 630
 R156: - 76 x0,6_76 - p0 + p6 >= 0
 R157: 564 x0,6_76 - p0 + p6 <= 640
 R158: - 97 x0,6_97 - p0 + p6 >= 0
 R159: 564 x0,6_97 - p0 + p6 <= 661
 R160: - 98 x0,6_98 - p0 + p6 >= 0
 R161: 564 x0,6_98 - p0 + p6 <= 662
 R162: - 99 x0,6_99 - p0 + p6 >= 0
 R163: 564 x0,6_99 - p0 + p6 <= 663
 R164: p0 - p7 <= -1
 R165: - x0,7_1 - p0 + p7 >= 0
 R166: 564 x0,7_1 - p0 + p7 <= 565
 R167: - 10 x0,7_10 - p0 + p7 >= 0
 R168: 564 x0,7_10 - p0 + p7 <= 574
 R169: - 13 x0,7_13 - p0 + p7 >= 0
 R170: 564 x0,7_13 - p0 + p7 <= 577
 R171: - 43 x0,7_43 - p0 + p7 >= 0
 R172: 564 x0,7_43 - p0 + p7 <= 607
 R173: - 61 x0,7_61 - p0 + p7 >= 0
 R174: 564 x0,7_61 - p0 + p7 <= 625
 R175: - 66 x0,7_66 - p0 + p7 >= 0
 R176: 564 x0,7_66 - p0 + p7 <= 630
 R177: - 76 x0,7_76 - p0 + p7 >= 0
 R178: 564 x0,7_76 - p0 + p7 <= 640
 R179: - 97 x0,7_97 - p0 + p7 >= 0
 R180: 564 x0,7_97 - p0 + p7 <= 661
 R181: - 98 x0,7_98 - p0 + p7 >= 0
 R182: 564 x0,7_98 - p0 + p7 <= 662
 R183: - 99 x0,7_99 - p0 + p7 >= 0
 R184: 564 x0,7_99 - p0 + p7 <= 663
 R185: p1 - p2 <= -1
 R186: - x1,2_1 - p1 + p2 >= 0
 R187: 564 x1,2_1 - p1 + p2 <= 565
 R188: - 10 x1,2_10 - p1 + p2 >= 0
 R189: 564 x1,2_10 - p1 + p2 <= 574
 R190: - 13 x1,2_13 - p1 + p2 >= 0
 R191: 564 x1,2_13 - p1 + p2 <= 577
 R192: - 43 x1,2_43 - p1 + p2 >= 0
 R193: 564 x1,2_43 - p1 + p2 <= 607
 R194: - 61 x1,2_61 - p1 + p2 >= 0
 R195: 564 x1,2_61 - p1 + p2 <= 625
 R196: - 66 x1,2_66 - p1 + p2 >= 0
 R197: 564 x1,2_66 - p1 + p2 <= 630
 R198: - 76 x1,2_76 - p1 + p2 >= 0
 R199: 564 x1,2_76 - p1 + p2 <= 640
 R200: - 97 x1,2_97 - p1 + p2 >= 0
 R201: 564 x1,2_97 - p1 + p2 <= 661
 R202: - 98 x1,2_98 - p1 + p2 >= 0
 R203: 564 x1,2_98 - p1 + p2 <= 662
 R204: - 99 x1,2_99 - p1 + p2 >= 0
 R205: 564 x1,2_99 - p1 + p2 <= 663
 R206: p1 - p3 <= -1
 R207: - x1,3_1 - p1 + p3 >= 0
 R208: 564 x1,3_1 - p1 + p3 <= 565
 R209: - 10 x1,3_10 - p1 + p3 >= 0
 R210: 564 x1,3_10 - p1 + p3 <= 574
 R211: - 13 x1,3_13 - p1 + p3 >= 0
 R212: 564 x1,3_13 - p1 + p3 <= 577
 R213: - 43 x1,3_43 - p1 + p3 >= 0
 R214: 564 x1,3_43 - p1 + p3 <= 607
 R215: - 61 x1,3_61 - p1 + p3 >= 0
 R216: 564 x1,3_61 - p1 + p3 <= 625
 R217: - 66 x1,3_66 - p1 + p3 >= 0
 R218: 564 x1,3_66 - p1 + p3 <= 630
 R219: - 76 x1,3_76 - p1 + p3 >= 0
 R220: 564 x1,3_76 - p1 + p3 <= 640
 R221: - 97 x1,3_97 - p1 + p3 >= 0
 R222: 564 x1,3_97 - p1 + p3 <= 661
 R223: - 98 x1,3_98 - p1 + p3 >= 0
 R224: 564 x1,3_98 - p1 + p3 <= 662
 R225: - 99 x1,3_99 - p1 + p3 >= 0
 R226: 564 x1,3_99 - p1 + p3 <= 663
 R227: p1 - p4 <= -1
 R228: - x1,4_1 - p1 + p4 >= 0
 R229: 564 x1,4_1 - p1 + p4 <= 565
 R230: - 10 x1,4_10 - p1 + p4 >= 0
 R231: 564 x1,4_10 - p1 + p4 <= 574
 R232: - 13 x1,4_13 - p1 + p4 >= 0
 R233: 564 x1,4_13 - p1 + p4 <= 577
 R234: - 43 x1,4_43 - p1 + p4 >= 0
 R235: 564 x1,4_43 - p1 + p4 <= 607
 R236: - 61 x1,4_61 - p1 + p4 >= 0
 R237: 564 x1,4_61 - p1 + p4 <= 625
 R238: - 66 x1,4_66 - p1 + p4 >= 0
 R239: 564 x1,4_66 - p1 + p4 <= 630
 R240: - 76 x1,4_76 - p1 + p4 >= 0
 R241: 564 x1,4_76 - p1 + p4 <= 640
 R242: - 97 x1,4_97 - p1 + p4 >= 0
 R243: 564 x1,4_97 - p1 + p4 <= 661
 R244: - 98 x1,4_98 - p1 + p4 >= 0
 R245: 564 x1,4_98 - p1 + p4 <= 662
 R246: - 99 x1,4_99 - p1 + p4 >= 0
 R247: 564 x1,4_99 - p1 + p4 <= 663
 R248: p1 - p5 <= -1
 R249: - x1,5_1 - p1 + p5 >= 0
 R250: 564 x1,5_1 - p1 + p5 <= 565
 R251: - 10 x1,5_10 - p1 + p5 >= 0
 R252: 564 x1,5_10 - p1 + p5 <= 574
 R253: - 13 x1,5_13 - p1 + p5 >= 0
 R254: 564 x1,5_13 - p1 + p5 <= 577
 R255: - 43 x1,5_43 - p1 + p5 >= 0
 R256: 564 x1,5_43 - p1 + p5 <= 607
 R257: - 61 x1,5_61 - p1 + p5 >= 0
 R258: 564 x1,5_61 - p1 + p5 <= 625
 R259: - 66 x1,5_66 - p1 + p5 >= 0
 R260: 564 x1,5_66 - p1 + p5 <= 630
 R261: - 76 x1,5_76 - p1 + p5 >= 0
 R262: 564 x1,5_76 - p1 + p5 <= 640
 R263: - 97 x1,5_97 - p1 + p5 >= 0
 R264: 564 x1,5_97 - p1 + p5 <= 661
 R265: - 98 x1,5_98 - p1 + p5 >= 0
 R266: 564 x1,5_98 - p1 + p5 <= 662
 R267: - 99 x1,5_99 - p1 + p5 >= 0
 R268: 564 x1,5_99 - p1 + p5 <= 663
 R269: p1 - p6 <= -1
 R270: - x1,6_1 - p1 + p6 >= 0
 R271: 564 x1,6_1 - p1 + p6 <= 565
 R272: - 10 x1,6_10 - p1 + p6 >= 0
 R273: 564 x1,6_10 - p1 + p6 <= 574
 R274: - 13 x1,6_13 - p1 + p6 >= 0
 R275: 564 x1,6_13 - p1 + p6 <= 577
 R276: - 43 x1,6_43 - p1 + p6 >= 0
 R277: 564 x1,6_43 - p1 + p6 <= 607
 R278: - 61 x1,6_61 - p1 + p6 >= 0
 R279: 564 x1,6_61 - p1 + p6 <= 625
 R280: - 66 x1,6_66 - p1 + p6 >= 0
 R281: 564 x1,6_66 - p1 + p6 <= 630
 R282: - 76 x1,6_76 - p1 + p6 >= 0
 R283: 564 x1,6_76 - p1 + p6 <= 640
 R284: - 97 x1,6_97 - p1 + p6 >= 0
 R285: 564 x1,6_97 - p1 + p6 <= 661
 R286: - 98 x1,6_98 - p1 + p6 >= 0
 R287: 564 x1,6_98 - p1 + p6 <= 662
 R288: - 99 x1,6_99 - p1 + p6 >= 0
 R289: 564 x1,6_99 - p1 + p6 <= 663
 R290: p1 - p7 <= -1
 R291: - x1,7_1 - p1 + p7 >= 0
 R292: 564 x1,7_1 - p1 + p7 <= 565
 R293: - 10 x1,7_10 - p1 + p7 >= 0
 R294: 564 x1,7_10 - p1 + p7 <= 574
 R295: - 13 x1,7_13 - p1 + p7 >= 0
 R296: 564 x1,7_13 - p1 + p7 <= 577
 R297: - 43 x1,7_43 - p1 + p7 >= 0
 R298: 564 x1,7_43 - p1 + p7 <= 607
 R299: - 61 x1,7_61 - p1 + p7 >= 0
 R300: 564 x1,7_61 - p1 + p7 <= 625
 R301: - 66 x1,7_66 - p1 + p7 >= 0
 R302: 564 x1,7_66 - p1 + p7 <= 630
 R303: - 76 x1,7_76 - p1 + p7 >= 0
 R304: 564 x1,7_76 - p1 + p7 <= 640
 R305: - 97 x1,7_97 - p1 + p7 >= 0
 R306: 564 x1,7_97 - p1 + p7 <= 661
 R307: - 98 x1,7_98 - p1 + p7 >= 0
 R308: 564 x1,7_98 - p1 + p7 <= 662
 R309: - 99 x1,7_99 - p1 + p7 >= 0
 R310: 564 x1,7_99 - p1 + p7 <= 663
 R311: p2 - p3 <= -1
 R312: - x2,3_1 - p2 + p3 >= 0
 R313: 564 x2,3_1 - p2 + p3 <= 565
 R314: - 10 x2,3_10 - p2 + p3 >= 0
 R315: 564 x2,3_10 - p2 + p3 <= 574
 R316: - 13 x2,3_13 - p2 + p3 >= 0
 R317: 564 x2,3_13 - p2 + p3 <= 577
 R318: - 43 x2,3_43 - p2 + p3 >= 0
 R319: 564 x2,3_43 - p2 + p3 <= 607
 R320: - 61 x2,3_61 - p2 + p3 >= 0
 R321: 564 x2,3_61 - p2 + p3 <= 625
 R322: - 66 x2,3_66 - p2 + p3 >= 0
 R323: 564 x2,3_66 - p2 + p3 <= 630
 R324: - 76 x2,3_76 - p2 + p3 >= 0
 R325: 564 x2,3_76 - p2 + p3 <= 640
 R326: - 97 x2,3_97 - p2 + p3 >= 0
 R327: 564 x2,3_97 - p2 + p3 <= 661
 R328: - 98 x2,3_98 - p2 + p3 >= 0
 R329: 564 x2,3_98 - p2 + p3 <= 662
 R330: - 99 x2,3_99 - p2 + p3 >= 0
 R331: 564 x2,3_99 - p2 + p3 <= 663
 R332: p2 - p4 <= -1
 R333: - x2,4_1 - p2 + p4 >= 0
 R334: 564 x2,4_1 - p2 + p4 <= 565
 R335: - 10 x2,4_10 - p2 + p4 >= 0
 R336: 564 x2,4_10 - p2 + p4 <= 574
 R337: - 13 x2,4_13 - p2 + p4 >= 0
 R338: 564 x2,4_13 - p2 + p4 <= 577
 R339: - 43 x2,4_43 - p2 + p4 >= 0
 R340: 564 x2,4_43 - p2 + p4 <= 607
 R341: - 61 x2,4_61 - p2 + p4 >= 0
 R342: 564 x2,4_61 - p2 + p4 <= 625
 R343: - 66 x2,4_66 - p2 + p4 >= 0
 R344: 564 x2,4_66 - p2 + p4 <= 630
 R345: - 76 x2,4_76 - p2 + p4 >= 0
 R346: 564 x2,4_76 - p2 + p4 <= 640
 R347: - 97 x2,4_97 - p2 + p4 >= 0
 R348: 564 x2,4_97 - p2 + p4 <= 661
 R349: - 98 x2,4_98 - p2 + p4 >= 0
 R350: 564 x2,4_98 - p2 + p4 <= 662
 R351: - 99 x2,4_99 - p2 + p4 >= 0
 R352: 564 x2,4_99 - p2 + p4 <= 663
 R353: p2 - p5 <= -1
 R354: - x2,5_1 - p2 + p5 >= 0
 R355: 564 x2,5_1 - p2 + p5 <= 565
 R356: - 10 x2,5_10 - p2 + p5 >= 0
 R357: 564 x2,5_10 - p2 + p5 <= 574
 R358: - 13 x2,5_13 - p2 + p5 >= 0
 R359: 564 x2,5_13 - p2 + p5 <= 577
 R360: - 43 x2,5_43 - p2 + p5 >= 0
 R361: 564 x2,5_43 - p2 + p5 <= 607
 R362: - 61 x2,5_61 - p2 + p5 >= 0
 R363: 564 x2,5_61 - p2 + p5 <= 625
 R364: - 66 x2,5_66 - p2 + p5 >= 0
 R365: 564 x2,5_66 - p2 + p5 <= 630
 R366: - 76 x2,5_76 - p2 + p5 >= 0
 R367: 564 x2,5_76 - p2 + p5 <= 640
 R368: - 97 x2,5_97 - p2 + p5 >= 0
 R369: 564 x2,5_97 - p2 + p5 <= 661
 R370: - 98 x2,5_98 - p2 + p5 >= 0
 R371: 564 x2,5_98 - p2 + p5 <= 662
 R372: - 99 x2,5_99 - p2 + p5 >= 0
 R373: 564 x2,5_99 - p2 + p5 <= 663
 R374: p2 - p6 <= -1
 R375: - x2,6_1 - p2 + p6 >= 0
 R376: 564 x2,6_1 - p2 + p6 <= 565
 R377: - 10 x2,6_10 - p2 + p6 >= 0
 R378: 564 x2,6_10 - p2 + p6 <= 574
 R379: - 13 x2,6_13 - p2 + p6 >= 0
 R380: 564 x2,6_13 - p2 + p6 <= 577
 R381: - 43 x2,6_43 - p2 + p6 >= 0
 R382: 564 x2,6_43 - p2 + p6 <= 607
 R383: - 61 x2,6_61 - p2 + p6 >= 0
 R384: 564 x2,6_61 - p2 + p6 <= 625
 R385: - 66 x2,6_66 - p2 + p6 >= 0
 R386: 564 x2,6_66 - p2 + p6 <= 630
 R387: - 76 x2,6_76 - p2 + p6 >= 0
 R388: 564 x2,6_76 - p2 + p6 <= 640
 R389: - 97 x2,6_97 - p2 + p6 >= 0
 R390: 564 x2,6_97 - p2 + p6 <= 661
 R391: - 98 x2,6_98 - p2 + p6 >= 0
 R392: 564 x2,6_98 - p2 + p6 <= 662
 R393: - 99 x2,6_99 - p2 + p6 >= 0
 R394: 564 x2,6_99 - p2 + p6 <= 663
 R395: p2 - p7 <= -1
 R396: - x2,7_1 - p2 + p7 >= 0
 R397: 564 x2,7_1 - p2 + p7 <= 565
 R398: - 10 x2,7_10 - p2 + p7 >= 0
 R399: 564 x2,7_10 - p2 + p7 <= 574
 R400: - 13 x2,7_13 - p2 + p7 >= 0
 R401: 564 x2,7_13 - p2 + p7 <= 577
 R402: - 43 x2,7_43 - p2 + p7 >= 0
 R403: 564 x2,7_43 - p2 + p7 <= 607
 R404: - 61 x2,7_61 - p2 + p7 >= 0
 R405: 564 x2,7_61 - p2 + p7 <= 625
 R406: - 66 x2,7_66 - p2 + p7 >= 0
 R407: 564 x2,7_66 - p2 + p7 <= 630
 R408: - 76 x2,7_76 - p2 + p7 >= 0
 R409: 564 x2,7_76 - p2 + p7 <= 640
 R410: - 97 x2,7_97 - p2 + p7 >= 0
 R411: 564 x2,7_97 - p2 + p7 <= 661
 R412: - 98 x2,7_98 - p2 + p7 >= 0
 R413: 564 x2,7_98 - p2 + p7 <= 662
 R414: - 99 x2,7_99 - p2 + p7 >= 0
 R415: 564 x2,7_99 - p2 + p7 <= 663
 R416: p3 - p4 <= -1
 R417: - x3,4_1 - p3 + p4 >= 0
 R418: 564 x3,4_1 - p3 + p4 <= 565
 R419: - 10 x3,4_10 - p3 + p4 >= 0
 R420: 564 x3,4_10 - p3 + p4 <= 574
 R421: - 13 x3,4_13 - p3 + p4 >= 0
 R422: 564 x3,4_13 - p3 + p4 <= 577
 R423: - 43 x3,4_43 - p3 + p4 >= 0
 R424: 564 x3,4_43 - p3 + p4 <= 607
 R425: - 61 x3,4_61 - p3 + p4 >= 0
 R426: 564 x3,4_61 - p3 + p4 <= 625
 R427: - 66 x3,4_66 - p3 + p4 >= 0
 R428: 564 x3,4_66 - p3 + p4 <= 630
 R429: - 76 x3,4_76 - p3 + p4 >= 0
 R430: 564 x3,4_76 - p3 + p4 <= 640
 R431: - 97 x3,4_97 - p3 + p4 >= 0
 R432: 564 x3,4_97 - p3 + p4 <= 661
 R433: - 98 x3,4_98 - p3 + p4 >= 0
 R434: 564 x3,4_98 - p3 + p4 <= 662
 R435: - 99 x3,4_99 - p3 + p4 >= 0
 R436: 564 x3,4_99 - p3 + p4 <= 663
 R437: p3 - p5 <= -1
 R438: - x3,5_1 - p3 + p5 >= 0
 R439: 564 x3,5_1 - p3 + p5 <= 565
 R440: - 10 x3,5_10 - p3 + p5 >= 0
 R441: 564 x3,5_10 - p3 + p5 <= 574
 R442: - 13 x3,5_13 - p3 + p5 >= 0
 R443: 564 x3,5_13 - p3 + p5 <= 577
 R444: - 43 x3,5_43 - p3 + p5 >= 0
 R445: 564 x3,5_43 - p3 + p5 <= 607
 R446: - 61 x3,5_61 - p3 + p5 >= 0
 R447: 564 x3,5_61 - p3 + p5 <= 625
 R448: - 66 x3,5_66 - p3 + p5 >= 0
 R449: 564 x3,5_66 - p3 + p5 <= 630
 R450: - 76 x3,5_76 - p3 + p5 >= 0
 R451: 564 x3,5_76 - p3 + p5 <= 640
 R452: - 97 x3,5_97 - p3 + p5 >= 0
 R453: 564 x3,5_97 - p3 + p5 <= 661
 R454: - 98 x3,5_98 - p3 + p5 >= 0
 R455: 564 x3,5_98 - p3 + p5 <= 662
 R456: - 99 x3,5_99 - p3 + p5 >= 0
 R457: 564 x3,5_99 - p3 + p5 <= 663
 R458: p3 - p6 <= -1
 R459: - x3,6_1 - p3 + p6 >= 0
 R460: 564 x3,6_1 - p3 + p6 <= 565
 R461: - 10 x3,6_10 - p3 + p6 >= 0
 R462: 564 x3,6_10 - p3 + p6 <= 574
 R463: - 13 x3,6_13 - p3 + p6 >= 0
 R464: 564 x3,6_13 - p3 + p6 <= 577
 R465: - 43 x3,6_43 - p3 + p6 >= 0
 R466: 564 x3,6_43 - p3 + p6 <= 607
 R467: - 61 x3,6_61 - p3 + p6 >= 0
 R468: 564 x3,6_61 - p3 + p6 <= 625
 R469: - 66 x3,6_66 - p3 + p6 >= 0
 R470: 564 x3,6_66 - p3 + p6 <= 630
 R471: - 76 x3,6_76 - p3 + p6 >= 0
 R472: 564 x3,6_76 - p3 + p6 <= 640
 R473: - 97 x3,6_97 - p3 + p6 >= 0
 R474: 564 x3,6_97 - p3 + p6 <= 661
 R475: - 98 x3,6_98 - p3 + p6 >= 0
 R476: 564 x3,6_98 - p3 + p6 <= 662
 R477: - 99 x3,6_99 - p3 + p6 >= 0
 R478: 564 x3,6_99 - p3 + p6 <= 663
 R479: p3 - p7 <= -1
 R480: - x3,7_1 - p3 + p7 >= 0
 R481: 564 x3,7_1 - p3 + p7 <= 565
 R482: - 10 x3,7_10 - p3 + p7 >= 0
 R483: 564 x3,7_10 - p3 + p7 <= 574
 R484: - 13 x3,7_13 - p3 + p7 >= 0
 R485: 564 x3,7_13 - p3 + p7 <= 577
 R486: - 43 x3,7_43 - p3 + p7 >= 0
 R487: 564 x3,7_43 - p3 + p7 <= 607
 R488: - 61 x3,7_61 - p3 + p7 >= 0
 R489: 564 x3,7_61 - p3 + p7 <= 625
 R490: - 66 x3,7_66 - p3 + p7 >= 0
 R491: 564 x3,7_66 - p3 + p7 <= 630
 R492: - 76 x3,7_76 - p3 + p7 >= 0
 R493: 564 x3,7_76 - p3 + p7 <= 640
 R494: - 97 x3,7_97 - p3 + p7 >= 0
 R495: 564 x3,7_97 - p3 + p7 <= 661
 R496: - 98 x3,7_98 - p3 + p7 >= 0
 R497: 564 x3,7_98 - p3 + p7 <= 662
 R498: - 99 x3,7_99 - p3 + p7 >= 0
 R499: 564 x3,7_99 - p3 + p7 <= 663
 R500: p4 - p5 <= -1
 R501: - x4,5_1 - p4 + p5 >= 0
 R502: 564 x4,5_1 - p4 + p5 <= 565
 R503: - 10 x4,5_10 - p4 + p5 >= 0
 R504: 564 x4,5_10 - p4 + p5 <= 574
 R505: - 13 x4,5_13 - p4 + p5 >= 0
 R506: 564 x4,5_13 - p4 + p5 <= 577
 R507: - 43 x4,5_43 - p4 + p5 >= 0
 R508: 564 x4,5_43 - p4 + p5 <= 607
 R509: - 61 x4,5_61 - p4 + p5 >= 0
 R510: 564 x4,5_61 - p4 + p5 <= 625
 R511: - 66 x4,5_66 - p4 + p5 >= 0
 R512: 564 x4,5_66 - p4 + p5 <= 630
 R513: - 76 x4,5_76 - p4 + p5 >= 0
 R514: 564 x4,5_76 - p4 + p5 <= 640
 R515: - 97 x4,5_97 - p4 + p5 >= 0
 R516: 564 x4,5_97 - p4 + p5 <= 661
 R517: - 98 x4,5_98 - p4 + p5 >= 0
 R518: 564 x4,5_98 - p4 + p5 <= 662
 R519: - 99 x4,5_99 - p4 + p5 >= 0
 R520: 564 x4,5_99 - p4 + p5 <= 663
 R521: p4 - p6 <= -1
 R522: - x4,6_1 - p4 + p6 >= 0
 R523: 564 x4,6_1 - p4 + p6 <= 565
 R524: - 10 x4,6_10 - p4 + p6 >= 0
 R525: 564 x4,6_10 - p4 + p6 <= 574
 R526: - 13 x4,6_13 - p4 + p6 >= 0
 R527: 564 x4,6_13 - p4 + p6 <= 577
 R528: - 43 x4,6_43 - p4 + p6 >= 0
 R529: 564 x4,6_43 - p4 + p6 <= 607
 R530: - 61 x4,6_61 - p4 + p6 >= 0
 R531: 564 x4,6_61 - p4 + p6 <= 625
 R532: - 66 x4,6_66 - p4 + p6 >= 0
 R533: 564 x4,6_66 - p4 + p6 <= 630
 R534: - 76 x4,6_76 - p4 + p6 >= 0
 R535: 564 x4,6_76 - p4 + p6 <= 640
 R536: - 97 x4,6_97 - p4 + p6 >= 0
 R537: 564 x4,6_97 - p4 + p6 <= 661
 R538: - 98 x4,6_98 - p4 + p6 >= 0
 R539: 564 x4,6_98 - p4 + p6 <= 662
 R540: - 99 x4,6_99 - p4 + p6 >= 0
 R541: 564 x4,6_99 - p4 + p6 <= 663
 R542: p4 - p7 <= -1
 R543: - x4,7_1 - p4 + p7 >= 0
 R544: 564 x4,7_1 - p4 + p7 <= 565
 R545: - 10 x4,7_10 - p4 + p7 >= 0
 R546: 564 x4,7_10 - p4 + p7 <= 574
 R547: - 13 x4,7_13 - p4 + p7 >= 0
 R548: 564 x4,7_13 - p4 + p7 <= 577
 R549: - 43 x4,7_43 - p4 + p7 >= 0
 R550: 564 x4,7_43 - p4 + p7 <= 607
 R551: - 61 x4,7_61 - p4 + p7 >= 0
 R552: 564 x4,7_61 - p4 + p7 <= 625
 R553: - 66 x4,7_66 - p4 + p7 >= 0
 R554: 564 x4,7_66 - p4 + p7 <= 630
 R555: - 76 x4,7_76 - p4 + p7 >= 0
 R556: 564 x4,7_76 - p4 + p7 <= 640
 R557: - 97 x4,7_97 - p4 + p7 >= 0
 R558: 564 x4,7_97 - p4 + p7 <= 661
 R559: - 98 x4,7_98 - p4 + p7 >= 0
 R560: 564 x4,7_98 - p4 + p7 <= 662
 R561: - 99 x4,7_99 - p4 + p7 >= 0
 R562: 564 x4,7_99 - p4 + p7 <= 663
 R563: p5 - p6 <= -1
 R564: - x5,6_1 - p5 + p6 >= 0
 R565: 564 x5,6_1 - p5 + p6 <= 565
 R566: - 10 x5,6_10 - p5 + p6 >= 0
 R567: 564 x5,6_10 - p5 + p6 <= 574
 R568: - 13 x5,6_13 - p5 + p6 >= 0
 R569: 564 x5,6_13 - p5 + p6 <= 577
 R570: - 43 x5,6_43 - p5 + p6 >= 0
 R571: 564 x5,6_43 - p5 + p6 <= 607
 R572: - 61 x5,6_61 - p5 + p6 >= 0
 R573: 564 x5,6_61 - p5 + p6 <= 625
 R574: - 66 x5,6_66 - p5 + p6 >= 0
 R575: 564 x5,6_66 - p5 + p6 <= 630
 R576: - 76 x5,6_76 - p5 + p6 >= 0
 R577: 564 x5,6_76 - p5 + p6 <= 640
 R578: - 97 x5,6_97 - p5 + p6 >= 0
 R579: 564 x5,6_97 - p5 + p6 <= 661
 R580: - 98 x5,6_98 - p5 + p6 >= 0
 R581: 564 x5,6_98 - p5 + p6 <= 662
 R582: - 99 x5,6_99 - p5 + p6 >= 0
 R583: 564 x5,6_99 - p5 + p6 <= 663
 R584: p5 - p7 <= -1
 R585: - x5,7_1 - p5 + p7 >= 0
 R586: 564 x5,7_1 - p5 + p7 <= 565
 R587: - 10 x5,7_10 - p5 + p7 >= 0
 R588: 564 x5,7_10 - p5 + p7 <= 574
 R589: - 13 x5,7_13 - p5 + p7 >= 0
 R590: 564 x5,7_13 - p5 + p7 <= 577
 R591: - 43 x5,7_43 - p5 + p7 >= 0
 R592: 564 x5,7_43 - p5 + p7 <= 607
 R593: - 61 x5,7_61 - p5 + p7 >= 0
 R594: 564 x5,7_61 - p5 + p7 <= 625
 R595: - 66 x5,7_66 - p5 + p7 >= 0
 R596: 564 x5,7_66 - p5 + p7 <= 630
 R597: - 76 x5,7_76 - p5 + p7 >= 0
 R598: 564 x5,7_76 - p5 + p7 <= 640
 R599: - 97 x5,7_97 - p5 + p7 >= 0
 R600: 564 x5,7_97 - p5 + p7 <= 661
 R601: - 98 x5,7_98 - p5 + p7 >= 0
 R602: 564 x5,7_98 - p5 + p7 <= 662
 R603: - 99 x5,7_99 - p5 + p7 >= 0
 R604: 564 x5,7_99 - p5 + p7 <= 663
 R605: p6 - p7 <= -1
 R606: - x6,7_1 - p6 + p7 >= 0
 R607: 564 x6,7_1 - p6 + p7 <= 565
 R608: - 10 x6,7_10 - p6 + p7 >= 0
 R609: 564 x6,7_10 - p6 + p7 <= 574
 R610: - 13 x6,7_13 - p6 + p7 >= 0
 R611: 564 x6,7_13 - p6 + p7 <= 577
 R612: - 43 x6,7_43 - p6 + p7 >= 0
 R613: 564 x6,7_43 - p6 + p7 <= 607
 R614: - 61 x6,7_61 - p6 + p7 >= 0
 R615: 564 x6,7_61 - p6 + p7 <= 625
 R616: - 66 x6,7_66 - p6 + p7 >= 0
 R617: 564 x6,7_66 - p6 + p7 <= 630
 R618: - 76 x6,7_76 - p6 + p7 >= 0
 R619: 564 x6,7_76 - p6 + p7 <= 640
 R620: - 97 x6,7_97 - p6 + p7 >= 0
 R621: 564 x6,7_97 - p6 + p7 <= 661
 R622: - 98 x6,7_98 - p6 + p7 >= 0
 R623: 564 x6,7_98 - p6 + p7 <= 662
 R624: - 99 x6,7_99 - p6 + p7 >= 0
 R625: 564 x6,7_99 - p6 + p7 <= 663
Bounds
Binaries
 x0,1_1 x0,1_10 x0,1_13 x0,1_43 x0,1_61 x0,1_66 x0,1_76 x0,1_97 x0,1_98
 x0,1_99 x0,2_1 x0,2_10 x0,2_13 x0,2_43 x0,2_61 x0,2_66 x0,2_76 x0,2_97
 x0,2_98 x0,2_99 x0,3_1 x0,3_10 x0,3_13 x0,3_43 x0,3_61 x0,3_66 x0,3_76
 x0,3_97 x0,3_98 x0,3_99 x0,4_1 x0,4_10 x0,4_13 x0,4_43 x0,4_61 x0,4_66
 x0,4_76 x0,4_97 x0,4_98 x0,4_99 x0,5_1 x0,5_10 x0,5_13 x0,5_43 x0,5_61
 x0,5_66 x0,5_76 x0,5_97 x0,5_98 x0,5_99 x0,6_1 x0,6_10 x0,6_13 x0,6_43
 x0,6_61 x0,6_66 x0,6_76 x0,6_97 x0,6_98 x0,6_99 x0,7_1 x0,7_10 x0,7_13
 x0,7_43 x0,7_61 x0,7_66 x0,7_76 x0,7_97 x0,7_98 x0,7_99 x1,2_1 x1,2_10
 x1,2_13 x1,2_43 x1,2_61 x1,2_66 x1,2_76 x1,2_97 x1,2_98 x1,2_99 x1,3_1
 x1,3_10 x1,3_13 x1,3_43 x1,3_61 x1,3_66 x1,3_76 x1,3_97 x1,3_98 x1,3_99
 x1,4_1 x1,4_10 x1,4_13 x1,4_43 x1,4_61 x1,4_66 x1,4_76 x1,4_97 x1,4_98
 x1,4_99 x1,5_1 x1,5_10 x1,5_13 x1,5_43 x1,5_61 x1,5_66 x1,5_76 x1,5_97
 x1,5_98 x1,5_99 x1,6_1 x1,6_10 x1,6_13 x1,6_43 x1,6_61 x1,6_66 x1,6_76
 x1,6_97 x1,6_98 x1,6_99 x1,7_1 x1,7_10 x1,7_13 x1,7_43 x1,7_61 x1,7_66
 x1,7_76 x1,7_97 x1,7_98 x1,7_99 x2,3_1 x2,3_10 x2,3_13 x2,3_43 x2,3_61
 x2,3_66 x2,3_76 x2,3_97 x2,3_98 x2,3_99 x2,4_1 x2,4_10 x2,4_13 x2,4_43
 x2,4_61 x2,4_66 x2,4_76 x2,4_97 x2,4_98 x2,4_99 x2,5_1 x2,5_10 x2,5_13
 x2,5_43 x2,5_61 x2,5_66 x2,5_76 x2,5_97 x2,5_98 x2,5_99 x2,6_1 x2,6_10
 x2,6_13 x2,6_43 x2,6_61 x2,6_66 x2,6_76 x2,6_97 x2,6_98 x2,6_99 x2,7_1
 x2,7_10 x2,7_13 x2,7_43 x2,7_61 x2,7_66 x2,7_76 x2,7_97 x2,7_98 x2,7_99
 x3,4_1 x3,4_10 x3,4_13 x3,4_43 x3,4_61 x3,4_66 x3,4_76 x3,4_97 x3,4_98
 x3,4_99 x3,5_1 x3,5_10 x3,5_13 x3,5_43 x3,5_61 x3,5_66 x3,5_76 x3,5_97
 x3,5_98 x3,5_99 x3,6_1 x3,6_10 x3,6_13 x3,6_43 x3,6_61 x3,6_66 x3,6_76
 x3,6_97 x3,6_98 x3,6_99 x3,7_1 x3,7_10 x3,7_13 x3,7_43 x3,7_61 x3,7_66
 x3,7_76 x3,7_97 x3,7_98 x3,7_99 x4,5_1 x4,5_10 x4,5_13 x4,5_43 x4,5_61
 x4,5_66 x4,5_76 x4,5_97 x4,5_98 x4,5_99 x4,6_1 x4,6_10 x4,6_13 x4,6_43
 x4,6_61 x4,6_66 x4,6_76 x4,6_97 x4,6_98 x4,6_99 x4,7_1 x4,7_10 x4,7_13
 x4,7_43 x4,7_61 x4,7_66 x4,7_76 x4,7_97 x4,7_98 x4,7_99 x5,6_1 x5,6_10
 x5,6_13 x5,6_43 x5,6_61 x5,6_66 x5,6_76 x5,6_97 x5,6_98 x5,6_99 x5,7_1
 x5,7_10 x5,7_13 x5,7_43 x5,7_61 x5,7_66 x5,7_76 x5,7_97 x5,7_98 x5,7_99
 x6,7_1 x6,7_10 x6,7_13 x6,7_43 x6,7_61 x6,7_66 x6,7_76 x6,7_97 x6,7_98
 x6,7_99
Generals
 p0 p1 p2 p3 p4 p5 p6 p7
End
